
;this file is automatically generated: Mon Feb 10 17:02:04 CST 2020

;declarations generated

(declare-fun oclExcludes ( Int Int) Bool)
(declare-fun Cardinality ( Int) Int)
(declare-fun oclSelect ( Int Bool) Int)
(declare-fun obj_3905bb07_d68c_41cf_882a_bdcc405c6f12 ( Int) Int)
(declare-fun Enum0 ( Int) Int)
(declare-fun Enum1 ( Int) Int)
(declare-fun container_ ( Int) Int)
(declare-fun class11_Class11BoolAttr0 ( Int) Bool)
(declare-fun class11_Class11BoolAttr1 ( Int) Bool)
(declare-fun oclIncludes ( Int Int) Bool)
(declare-fun type_f7e99c09_e960_4ad8_b302_745d1e771688_Class11 ( Int) Bool)
(declare-fun type_f7e99c09_e960_4ad8_b302_745d1e771688_Class13 ( Int) Bool)
(declare-fun ObjAt ( Int Int) Int)

;formula(s) generated
(assert (! (and (forall ((v Int)) (=> (and ( type_f7e99c09_e960_4ad8_b302_745d1e771688_Class11 v )  ( type_f7e99c09_e960_4ad8_b302_745d1e771688_Class13 v ) ) ( class11_Class11BoolAttr1 ( obj_3905bb07_d68c_41cf_882a_bdcc405c6f12 v )  ) )) (forall ((v Int)) (=> (and ( type_f7e99c09_e960_4ad8_b302_745d1e771688_Class11 v )  ( type_f7e99c09_e960_4ad8_b302_745d1e771688_Class13 v ) ) ( class11_Class11BoolAttr0 ( obj_3905bb07_d68c_41cf_882a_bdcc405c6f12 v )  ) ))):named l0))
(assert (exists ((o Int)) (and ( type_f7e99c09_e960_4ad8_b302_745d1e771688_Class11 ( obj_3905bb07_d68c_41cf_882a_bdcc405c6f12 o )  )  ( type_f7e99c09_e960_4ad8_b302_745d1e771688_Class13 ( obj_3905bb07_d68c_41cf_882a_bdcc405c6f12 o )  ) )))

 ;end of formula 